(declare-fun bvlambda_24_ ()Bool         )
(declare-fun bvlambda_26_ () (_ BitVec 2))
(declare-fun bvlambda_40_ ()Bool         )
(declare-fun bvlambda_41_ () (_ BitVec 6))
(declare-fun bvlambda_42_ () (_ BitVec 9))
(declare-fun a124 () (Array (_ BitVec 9) (_ BitVec 7)))
(declare-fun a125 () (Array (_ BitVec 1) (_ BitVec 2)))
(assert
(let (($e1 false    ))
(let (($e12 (_ bv0 9)))
(let (($e14 (_ bv0 8)))
(let (($e18 (_ bv0 6)))
(let (($e23 (_ bv2046 11)))
(let (($e31 (_ bv34 9)))
(let (($e36 (_ bv0 10)))
(let (($e47 (_ bv0 14)))
(let (($e52 (_ bv0 15)))
(let (($e143         $e12             ))
(let (($e144         $e143             ))
(let (($e145         $e144       ))
(let (($e146 ((_ extract 7 6) $e145)))
(let (($e184 (concat bvlambda_40_ bvlambda_41_)))
(let (($e185 (concat $e184 bvlambda_42_)))
(let (($e241 (select a125 true       )))
(let (($e258 (select a124 $e31)))
(let (($e259 (   extract      $e258)))
(let (($e260 (store a125 $e259 bvlambda_26_)))
(let (($e261 (select $e260 $e1)))
(let (($e263 (concat        $e47  $e261)))
(let (($e265                    $e263       ))
(let (($e266      (bvult $e185 $e265)         ))
(let (($e267        $e266               ))
(let (($e313 (       bvnot $e23               )))
(let (($e317                    $e313       ))
(let (($e536 (concat $e14 $e241)))
(let (($e538                          $e536 ))
(let (($e539              $e538 ))
(let (($e540        $e539                             ))
(let (($e541                  $e540 ))
(let (($e543                    $e541      ))
(let (($e550                                    $e543  ))
(let (($e551                  $e550 ))
(let (($e552 (concat $e18 $e551)))
(let (($e556                         $e552 ))
(let (($e567 (concat $e36        $e267 )))
(let (($e568                    $e567       ))
(let (($e569      (bvult $e568 $e317)         ))
(let (($e574               $e569          ))
(let (($e609               $e574          ))
(let (($e619               $e609        ))
(let (($e620               $e619                ))
(let (($e621        $e620               ))
(let (($e622 (store a125 $e1 $e146)))
(let (($e623 (select $e622 bvlambda_24_)))
(let (($e625                      $e623 ))
(let (($e627                    $e625       ))
(let (($e628 (   extract        $e627)))
(let (($e636 (                     bvnot $e628 )))
(let (($e642        (bvnot $e636)               ))
(let (($e646               $e642          ))
(let (($e665                      (bvnot $e646) ))
(let (($e685                      (bvnot $e665) ))
(let (($e697                       $e685          ))
(let (($e699              $e697 ))
(let (($e719                      (bvnot $e699) ))
(let (($e724                      (bvnot $e719) ))
(let (($e760              (bvnot $e724) ))
(let (($e761 (bvand (bvnot $e760) $e621)))
(let (($e763                      (bvnot $e761) ))
(let (($e879 false                              ))
(let (($e883                          $e556 ))
(let (($e889                $e52               ))
(let (($e890        $e889       ))
(let (($e892                    $e890       ))
(let (($e893         $e892               ))
(let (($e896 ((_ extract 14 0) $e883)))
(let (($e897                   $e893 ))
(let (($e898      (bvult $e897 $e896)         ))
(let (($e899        $e898       ))
(let (($e901                      (bvnot $e899) ))
(let (($e902      (= $e901 $e879)         ))
(
                                     bvnot(bvand(bvnot $e902)$e763)
                                                                                                                                                                                                                                                                                                                                                                                                                                                                                                        ))) ))))  )) ))     )   )                                                                                                                   ) ))                                   )    )                   ) )           )                   )                  )   )     )       )) ) )))))         )                                  )    )))          )   )))      ) )))) )                                                                                                                                                                                                                          )   )                                             ))) ) ))))                )                                                       ))                                     ))))                                    )    )          )    )       )    )   ) )          ))
